/*********************************************
 * OPL 20.1.0.0 Data
 * Author: utente
 * Creation Date: 15 nov 2022 at 16:53:25
 *********************************************/

 
  //insiemi 
 
lunghezza = {3.0, 2.5, 2.0, 4.0, 1.5};
tagli = {1, 2, 3, 4, 5};


// VARIABILI DECISIONALI


tab=[[2,0,0,1,1]
	[1,2,0,1,0]
	[0,1,0,2,0]
	[0,0,2,0,1]
	[1,2,1,0,2]];
	
					
ric=#[3.0:23,
	  2.5:34,
	  2.0:28,
	  4.0:20,
	  1.5:35]#;

